NAME : in_house_8_11
TYPE : TSP
DIMENSION : 8
EDGE_WEIGHT_TYPE : EXPLICIT
EDGE_WEIGHT_FORMAT : UPPER_ROW
COMMENT : INVERSION_SHIFT=4
EDGE_WEIGHT_SECTION
62
52
25
8
20
19
42
14
24
49
46
63
24
55
55
59
60
7
33
52
10
38
57
29
36
30
38
4
